


















































































66 42 71 
5 112 68 0 
16 62 36 64 
32 58 80 
65 50 83 
46 54 78 9 
35 110 13 
94 87 67 
24 40 33 101 
99 93 75 105 
45 76 38 25 
109 19 79 
82 28 29 
49 85 43 56 
34 103 98 17 
111 15 90 113 
37 22 8 88 
114 84 102 7 
74 12 89 31 
59 86 97 72 
81 55 44 2 
100 60 47 41 
104 11 3 
51 69 108 
91 1 107 20 
39 48 4 
14 52 27 
77 23 21 73 
57 30 96 95 
106 26 10 
92 18 53 63 
61 6 70 
